7388
[0, 24, 23, 46, 69, 70, 92, 93, 115, 116, 94, 117, 140, 138, 139, 162, 161, 184, 185, 186, 187, 188, 189, 190, 191, 192, 215, 214, 213, 212, 211, 210, 209, 208, 207, 230, 253, 254, 276, 278, 277, 299, 300, 301, 302, 303, 304, 327, 328, 352, 351, 350, 349, 326, 325, 324, 323, 322, 345, 346, 347, 348, 370, 369, 368, 391, 392, 393, 394, 371, 372, 373, 374, 375, 376, 377, 378, 379, 380, 381, 383, 382, 359, 358, 357, 356, 355, 353, 354, 332, 333, 334, 335, 336, 337, 338, 339, 361, 360, 384, 408, 407, 406, 405, 404, 403, 402, 401, 400, 399, 398, 421, 397, 396, 420, 419, 395, 418, 417, 415, 414, 416, 440, 441, 439, 438, 437, 483, 460, 484, 506, 529, 552, 553, 554, 557, 558, 559, 560, 561, 562, 563, 564, 565, 566, 567, 568, 569, 570, 571, 572, 573, 574, 551, 550, 549, 548, 547, 546, 545, 544, 543, 542, 541, 540, 539, 538, 537, 536, 535, 534, 533, 556, 555, 532, 531, 530, 507, 508, 509, 510, 511, 512, 514, 513, 515, 516, 517, 518, 519, 520, 521, 522, 523, 524, 525, 526, 527, 528, 505, 504, 503, 502, 501, 500, 499, 498, 497, 496, 495, 494, 493, 492, 491, 490, 489, 488, 487, 486, 485, 461, 462, 463, 464, 442, 466, 465, 467, 468, 469, 470, 471, 472, 473, 474, 475, 476, 477, 478, 479, 480, 482, 481, 459, 458, 457, 456, 455, 454, 453, 452, 451, 450, 449, 448, 447, 446, 445, 444, 443, 422, 423, 424, 425, 426, 427, 428, 429, 430, 431, 432, 433, 434, 435, 436, 413, 390, 389, 412, 388, 411, 410, 387, 409, 386, 385, 362, 363, 340, 364, 341, 365, 366, 367, 344, 343, 321, 320, 319, 342, 318, 317, 316, 315, 314, 313, 312, 311, 310, 309, 308, 331, 330, 307, 329, 306, 305, 283, 284, 260, 259, 282, 281, 280, 279, 256, 258, 257, 234, 233, 255, 231, 232, 235, 236, 237, 238, 239, 263, 262, 261, 285, 286, 287, 288, 289, 290, 291, 292, 293, 294, 295, 296, 297, 298, 275, 274, 273, 272, 249, 250, 251, 252, 229, 228, 206, 205, 204, 203, 180, 183, 182, 181, 179, 178, 202, 201, 200, 199, 198, 197, 196, 218, 219, 220, 221, 222, 223, 224, 225, 227, 226, 248, 271, 270, 269, 247, 246, 245, 244, 242, 243, 268, 267, 266, 265, 264, 241, 240, 217, 216, 194, 195, 173, 174, 175, 176, 156, 155, 177, 153, 152, 151, 129, 127, 150, 126, 125, 102, 124, 123, 121, 145, 146, 147, 148, 149, 172, 171, 193, 170, 169, 168, 167, 144, 166, 165, 164, 163, 141, 142, 143, 120, 119, 118, 95, 96, 97, 98, 122, 99, 100, 101, 103, 105, 104, 128, 106, 107, 130, 131, 154, 132, 133, 110, 134, 135, 157, 158, 136, 159, 160, 137, 114, 113, 111, 108, 109, 87, 88, 89, 112, 90, 91, 68, 67, 66, 65, 42, 43, 44, 45, 22, 21, 20, 19, 18, 41, 40, 39, 17, 16, 14, 15, 38, 37, 59, 60, 61, 62, 63, 64, 86, 85, 84, 83, 82, 81, 80, 79, 78, 77, 76, 75, 74, 73, 72, 50, 49, 71, 48, 47, 25, 26, 27, 28, 51, 52, 53, 54, 55, 56, 57, 58, 35, 36, 34, 33, 10, 12, 11, 13, 9, 8, 32, 31, 30, 29, 7, 6, 5, 4, 3, 2, 1]
